c Reduced graph for r29 generated by Cyril Grelier
p edge 281 3553
e 1 2
e 1 3
e 1 8
e 1 9
e 1 10
e 1 11
e 1 16
e 1 17
e 1 22
e 1 23
e 1 24
e 1 25
e 1 26
e 1 27
e 1 31
e 1 33
e 1 36
e 1 41
e 1 42
e 1 43
e 1 48
e 1 55
e 1 62
e 1 63
e 1 64
e 1 65
e 1 66
e 1 75
e 1 77
e 1 103
e 1 104
e 1 105
e 2 4
e 2 12
e 2 13
e 2 14
e 2 15
e 2 16
e 2 17
e 2 26
e 2 27
e 2 28
e 2 29
e 2 30
e 2 31
e 2 33
e 2 36
e 2 41
e 2 46
e 2 47
e 2 48
e 2 55
e 2 62
e 2 66
e 2 73
e 2 74
e 2 75
e 2 77
e 2 105
e 2 112
e 2 113
e 2 114
e 2 115
e 3 4
e 3 8
e 3 9
e 3 10
e 3 11
e 3 22
e 3 23
e 3 24
e 3 25
e 3 32
e 3 34
e 3 35
e 3 42
e 3 43
e 3 44
e 3 45
e 3 51
e 3 59
e 3 63
e 3 64
e 3 65
e 3 76
e 3 89
e 3 102
e 3 103
e 3 104
e 3 106
e 3 116
e 3 145
e 3 163
e 4 12
e 4 13
e 4 14
e 4 15
e 4 28
e 4 29
e 4 30
e 4 32
e 4 34
e 4 35
e 4 44
e 4 45
e 4 46
e 4 47
e 4 51
e 4 59
e 4 73
e 4 74
e 4 76
e 4 89
e 4 102
e 4 106
e 4 112
e 4 113
e 4 114
e 4 115
e 4 116
e 4 145
e 4 163
e 5 6
e 5 7
e 5 8
e 5 12
e 5 18
e 5 19
e 5 20
e 5 21
e 5 37
e 5 38
e 5 39
e 5 40
e 5 52
e 5 56
e 5 60
e 5 61
e 5 67
e 5 70
e 5 78
e 5 93
e 5 95
e 5 96
e 5 97
e 5 98
e 5 99
e 5 117
e 5 131
e 5 141
e 5 159
e 5 184
e 6 7
e 6 10
e 6 14
e 6 18
e 6 19
e 6 20
e 6 21
e 6 37
e 6 38
e 6 39
e 6 40
e 6 49
e 6 57
e 6 60
e 6 61
e 6 94
e 6 95
e 6 96
e 6 97
e 6 98
e 6 101
e 6 133
e 6 143
e 6 147
e 6 156
e 6 161
e 6 186
e 6 198
e 6 259
e 7 11
e 7 15
e 7 18
e 7 19
e 7 20
e 7 21
e 7 37
e 7 38
e 7 39
e 7 40
e 7 50
e 7 54
e 7 58
e 7 60
e 7 61
e 7 69
e 7 72
e 7 80
e 7 86
e 7 95
e 7 96
e 7 97
e 7 98
e 7 134
e 7 144
e 7 148
e 7 162
e 7 260
e 8 9
e 8 10
e 8 11
e 8 12
e 8 22
e 8 23
e 8 24
e 8 25
e 8 42
e 8 43
e 8 52
e 8 56
e 8 63
e 8 64
e 8 65
e 8 67
e 8 70
e 8 78
e 8 93
e 8 99
e 8 103
e 8 104
e 8 117
e 8 131
e 8 141
e 8 159
e 8 184
e 9 10
e 9 11
e 9 13
e 9 22
e 9 23
e 9 24
e 9 25
e 9 42
e 9 43
e 9 53
e 9 63
e 9 64
e 9 65
e 9 68
e 9 71
e 9 79
e 9 85
e 9 100
e 9 103
e 9 104
e 9 118
e 9 132
e 9 142
e 9 146
e 9 155
e 9 160
e 9 185
e 10 11
e 10 14
e 10 22
e 10 23
e 10 24
e 10 25
e 10 42
e 10 43
e 10 49
e 10 57
e 10 63
e 10 64
e 10 65
e 10 94
e 10 101
e 10 103
e 10 104
e 10 133
e 10 143
e 10 147
e 10 156
e 10 161
e 10 186
e 10 198
e 10 259
e 11 15
e 11 22
e 11 23
e 11 24
e 11 25
e 11 42
e 11 43
e 11 50
e 11 54
e 11 58
e 11 63
e 11 64
e 11 65
e 11 69
e 11 72
e 11 80
e 11 86
e 11 103
e 11 104
e 11 134
e 11 144
e 11 148
e 11 162
e 11 260
e 12 13
e 12 14
e 12 15
e 12 28
e 12 29
e 12 30
e 12 46
e 12 47
e 12 52
e 12 56
e 12 67
e 12 70
e 12 73
e 12 74
e 12 78
e 12 93
e 12 99
e 12 112
e 12 113
e 12 114
e 12 115
e 12 117
e 12 131
e 12 141
e 12 159
e 12 184
e 13 14
e 13 15
e 13 28
e 13 29
e 13 30
e 13 46
e 13 47
e 13 53
e 13 68
e 13 71
e 13 73
e 13 74
e 13 79
e 13 85
e 13 100
e 13 112
e 13 113
e 13 114
e 13 115
e 13 118
e 13 132
e 13 142
e 13 146
e 13 155
e 13 160
e 13 185
e 14 15
e 14 28
e 14 29
e 14 30
e 14 46
e 14 47
e 14 49
e 14 57
e 14 73
e 14 74
e 14 94
e 14 101
e 14 112
e 14 113
e 14 114
e 14 115
e 14 133
e 14 143
e 14 147
e 14 156
e 14 161
e 14 186
e 14 198
e 14 259
e 15 28
e 15 29
e 15 30
e 15 46
e 15 47
e 15 50
e 15 54
e 15 58
e 15 69
e 15 72
e 15 73
e 15 74
e 15 80
e 15 86
e 15 112
e 15 113
e 15 114
e 15 115
e 15 134
e 15 144
e 15 148
e 15 162
e 15 260
e 16 17
e 16 26
e 16 27
e 16 31
e 16 32
e 16 33
e 16 36
e 16 41
e 16 48
e 16 49
e 16 50
e 16 55
e 16 62
e 16 66
e 16 75
e 16 77
e 16 81
e 16 82
e 16 83
e 16 84
e 16 105
e 16 122
e 16 123
e 16 124
e 16 166
e 16 201
e 16 202
e 16 203
e 17 26
e 17 27
e 17 31
e 17 33
e 17 35
e 17 36
e 17 41
e 17 48
e 17 55
e 17 56
e 17 57
e 17 58
e 17 62
e 17 66
e 17 75
e 17 77
e 17 90
e 17 91
e 17 92
e 17 105
e 17 135
e 17 174
e 17 175
e 17 212
e 17 213
e 17 214
e 18 19
e 18 20
e 18 21
e 18 22
e 18 37
e 18 38
e 18 39
e 18 40
e 18 60
e 18 61
e 18 81
e 18 90
e 18 95
e 18 96
e 18 97
e 18 98
e 18 107
e 18 109
e 18 119
e 18 125
e 18 136
e 18 157
e 18 173
e 18 190
e 18 220
e 18 237
e 19 20
e 19 21
e 19 23
e 19 28
e 19 37
e 19 38
e 19 39
e 19 40
e 19 60
e 19 61
e 19 82
e 19 87
e 19 95
e 19 96
e 19 97
e 19 98
e 19 110
e 19 120
e 19 137
e 19 140
e 19 182
e 19 191
e 19 197
e 19 238
e 19 271
e 20 21
e 20 24
e 20 29
e 20 37
e 20 38
e 20 39
e 20 40
e 20 60
e 20 61
e 20 83
e 20 91
e 20 95
e 20 96
e 20 97
e 20 98
e 20 108
e 20 111
e 20 121
e 20 126
e 20 138
e 20 158
e 20 192
e 20 221
e 20 239
e 21 25
e 21 30
e 21 37
e 21 38
e 21 39
e 21 40
e 21 60
e 21 61
e 21 84
e 21 88
e 21 92
e 21 95
e 21 96
e 21 97
e 21 98
e 21 127
e 21 139
e 21 183
e 21 187
e 21 193
e 21 222
e 21 240
e 21 272
e 22 23
e 22 24
e 22 25
e 22 42
e 22 43
e 22 63
e 22 64
e 22 65
e 22 81
e 22 90
e 22 103
e 22 104
e 22 107
e 22 109
e 22 119
e 22 125
e 22 136
e 22 157
e 22 173
e 22 190
e 22 220
e 22 237
e 23 24
e 23 25
e 23 28
e 23 42
e 23 43
e 23 63
e 23 64
e 23 65
e 23 82
e 23 87
e 23 103
e 23 104
e 23 110
e 23 120
e 23 137
e 23 140
e 23 182
e 23 191
e 23 197
e 23 238
e 23 271
e 24 25
e 24 29
e 24 42
e 24 43
e 24 63
e 24 64
e 24 65
e 24 83
e 24 91
e 24 103
e 24 104
e 24 108
e 24 111
e 24 121
e 24 126
e 24 138
e 24 158
e 24 192
e 24 221
e 24 239
e 25 30
e 25 42
e 25 43
e 25 63
e 25 64
e 25 65
e 25 84
e 25 88
e 25 92
e 25 103
e 25 104
e 25 127
e 25 139
e 25 183
e 25 187
e 25 193
e 25 222
e 25 240
e 25 272
e 26 27
e 26 31
e 26 33
e 26 36
e 26 41
e 26 44
e 26 48
e 26 55
e 26 62
e 26 66
e 26 67
e 26 68
e 26 69
e 26 75
e 26 77
e 26 105
e 26 107
e 26 108
e 26 149
e 26 150
e 26 151
e 26 188
e 26 189
e 26 225
e 26 226
e 27 31
e 27 33
e 27 36
e 27 41
e 27 45
e 27 48
e 27 55
e 27 62
e 27 66
e 27 70
e 27 71
e 27 72
e 27 75
e 27 77
e 27 105
e 27 109
e 27 110
e 27 111
e 27 152
e 27 153
e 27 154
e 27 227
e 27 228
e 27 229
e 28 29
e 28 30
e 28 46
e 28 47
e 28 73
e 28 74
e 28 82
e 28 87
e 28 110
e 28 112
e 28 113
e 28 114
e 28 115
e 28 120
e 28 137
e 28 140
e 28 182
e 28 191
e 28 197
e 28 238
e 28 271
e 29 30
e 29 46
e 29 47
e 29 73
e 29 74
e 29 83
e 29 91
e 29 108
e 29 111
e 29 112
e 29 113
e 29 114
e 29 115
e 29 121
e 29 126
e 29 138
e 29 158
e 29 192
e 29 221
e 29 239
e 30 46
e 30 47
e 30 73
e 30 74
e 30 84
e 30 88
e 30 92
e 30 112
e 30 113
e 30 114
e 30 115
e 30 127
e 30 139
e 30 183
e 30 187
e 30 193
e 30 222
e 30 240
e 30 272
e 31 33
e 31 36
e 31 41
e 31 48
e 31 55
e 31 62
e 31 66
e 31 75
e 31 77
e 31 78
e 31 79
e 31 80
e 31 105
e 31 119
e 31 120
e 31 121
e 31 164
e 31 165
e 31 199
e 31 200
e 31 241
e 31 242
e 31 243
e 32 34
e 32 35
e 32 44
e 32 45
e 32 49
e 32 50
e 32 51
e 32 59
e 32 76
e 32 81
e 32 82
e 32 83
e 32 84
e 32 89
e 32 102
e 32 106
e 32 116
e 32 122
e 32 123
e 32 124
e 32 145
e 32 163
e 32 166
e 32 201
e 32 202
e 32 203
e 33 36
e 33 41
e 33 48
e 33 51
e 33 55
e 33 62
e 33 66
e 33 75
e 33 77
e 33 85
e 33 86
e 33 105
e 33 125
e 33 126
e 33 127
e 33 167
e 33 168
e 33 169
e 33 204
e 33 205
e 33 244
e 33 245
e 34 35
e 34 44
e 34 45
e 34 51
e 34 52
e 34 53
e 34 54
e 34 59
e 34 76
e 34 87
e 34 88
e 34 89
e 34 102
e 34 106
e 34 116
e 34 128
e 34 129
e 34 130
e 34 145
e 34 163
e 34 170
e 34 171
e 34 172
e 34 206
e 34 207
e 34 208
e 35 44
e 35 45
e 35 51
e 35 56
e 35 57
e 35 58
e 35 59
e 35 76
e 35 89
e 35 90
e 35 91
e 35 92
e 35 102
e 35 106
e 35 116
e 35 135
e 35 145
e 35 163
e 35 174
e 35 175
e 35 212
e 35 213
e 35 214
e 36 41
e 36 48
e 36 55
e 36 59
e 36 62
e 36 66
e 36 75
e 36 77
e 36 93
e 36 94
e 36 105
e 36 136
e 36 137
e 36 138
e 36 139
e 36 176
e 36 177
e 36 215
e 36 248
e 36 249
e 37 38
e 37 39
e 37 40
e 37 46
e 37 60
e 37 61
e 37 95
e 37 96
e 37 97
e 37 98
e 37 122
e 37 128
e 37 152
e 37 164
e 37 176
e 37 178
e 37 194
e 37 223
e 37 230
e 37 252
e 37 263
e 38 39
e 38 40
e 38 60
e 38 61
e 38 95
e 38 96
e 38 97
e 38 98
e 38 123
e 38 135
e 38 149
e 38 153
e 38 167
e 38 177
e 38 179
e 38 209
e 38 219
e 38 224
e 38 234
e 38 264
e 39 40
e 39 42
e 39 60
e 39 61
e 39 95
e 39 96
e 39 97
e 39 98
e 39 129
e 39 150
e 39 165
e 39 168
e 39 180
e 39 195
e 39 210
e 39 231
e 39 235
e 39 265
e 39 276
e 40 43
e 40 47
e 40 60
e 40 61
e 40 95
e 40 96
e 40 97
e 40 98
e 40 124
e 40 130
e 40 151
e 40 154
e 40 169
e 40 181
e 40 196
e 40 211
e 40 236
e 40 266
e 41 48
e 41 55
e 41 62
e 41 66
e 41 75
e 41 77
e 41 99
e 41 100
e 41 101
e 41 105
e 41 140
e 41 178
e 41 179
e 41 180
e 41 181
e 41 216
e 41 217
e 41 218
e 41 250
e 42 43
e 42 63
e 42 64
e 42 65
e 42 103
e 42 104
e 42 129
e 42 150
e 42 165
e 42 168
e 42 180
e 42 195
e 42 210
e 42 231
e 42 235
e 42 265
e 42 276
e 43 47
e 43 63
e 43 64
e 43 65
e 43 103
e 43 104
e 43 124
e 43 130
e 43 151
e 43 154
e 43 169
e 43 181
e 43 196
e 43 211
e 43 236
e 43 266
e 44 45
e 44 51
e 44 59
e 44 67
e 44 68
e 44 69
e 44 76
e 44 89
e 44 102
e 44 106
e 44 107
e 44 108
e 44 116
e 44 145
e 44 149
e 44 150
e 44 151
e 44 163
e 44 188
e 44 189
e 44 225
e 44 226
e 45 51
e 45 59
e 45 70
e 45 71
e 45 72
e 45 76
e 45 89
e 45 102
e 45 106
e 45 109
e 45 110
e 45 111
e 45 116
e 45 145
e 45 152
e 45 153
e 45 154
e 45 163
e 45 227
e 45 228
e 45 229
e 46 47
e 46 73
e 46 74
e 46 112
e 46 113
e 46 114
e 46 115
e 46 122
e 46 128
e 46 152
e 46 164
e 46 176
e 46 178
e 46 194
e 46 223
e 46 230
e 46 252
e 46 263
e 47 73
e 47 74
e 47 112
e 47 113
e 47 114
e 47 115
e 47 124
e 47 130
e 47 151
e 47 154
e 47 169
e 47 181
e 47 196
e 47 211
e 47 236
e 47 266
e 48 55
e 48 62
e 48 66
e 48 75
e 48 76
e 48 77
e 48 105
e 48 117
e 48 118
e 48 157
e 48 158
e 48 194
e 48 195
e 48 196
e 48 232
e 48 233
e 48 257
e 48 258
e 49 50
e 49 57
e 49 81
e 49 82
e 49 83
e 49 84
e 49 94
e 49 101
e 49 122
e 49 123
e 49 124
e 49 133
e 49 143
e 49 147
e 49 156
e 49 161
e 49 166
e 49 186
e 49 198
e 49 201
e 49 202
e 49 203
e 49 259
e 50 54
e 50 58
e 50 69
e 50 72
e 50 80
e 50 81
e 50 82
e 50 83
e 50 84
e 50 86
e 50 122
e 50 123
e 50 124
e 50 134
e 50 144
e 50 148
e 50 162
e 50 166
e 50 201
e 50 202
e 50 203
e 50 260
e 51 59
e 51 76
e 51 85
e 51 86
e 51 89
e 51 102
e 51 106
e 51 116
e 51 125
e 51 126
e 51 127
e 51 145
e 51 163
e 51 167
e 51 168
e 51 169
e 51 204
e 51 205
e 51 244
e 51 245
e 52 53
e 52 54
e 52 56
e 52 67
e 52 70
e 52 78
e 52 87
e 52 88
e 52 93
e 52 99
e 52 117
e 52 128
e 52 129
e 52 130
e 52 131
e 52 141
e 52 159
e 52 170
e 52 171
e 52 172
e 52 184
e 52 206
e 52 207
e 52 208
e 53 54
e 53 68
e 53 71
e 53 79
e 53 85
e 53 87
e 53 88
e 53 100
e 53 118
e 53 128
e 53 129
e 53 130
e 53 132
e 53 142
e 53 146
e 53 155
e 53 160
e 53 170
e 53 171
e 53 172
e 53 185
e 53 206
e 53 207
e 53 208
e 54 58
e 54 69
e 54 72
e 54 80
e 54 86
e 54 87
e 54 88
e 54 128
e 54 129
e 54 130
e 54 134
e 54 144
e 54 148
e 54 162
e 54 170
e 54 171
e 54 172
e 54 206
e 54 207
e 54 208
e 54 260
e 55 62
e 55 66
e 55 75
e 55 77
e 55 89
e 55 105
e 55 131
e 55 132
e 55 133
e 55 134
e 55 173
e 55 209
e 55 210
e 55 211
e 55 246
e 55 247
e 56 57
e 56 58
e 56 67
e 56 70
e 56 78
e 56 90
e 56 91
e 56 92
e 56 93
e 56 99
e 56 117
e 56 131
e 56 135
e 56 141
e 56 159
e 56 174
e 56 175
e 56 184
e 56 212
e 56 213
e 56 214
e 57 58
e 57 90
e 57 91
e 57 92
e 57 94
e 57 101
e 57 133
e 57 135
e 57 143
e 57 147
e 57 156
e 57 161
e 57 174
e 57 175
e 57 186
e 57 198
e 57 212
e 57 213
e 57 214
e 57 259
e 58 69
e 58 72
e 58 80
e 58 86
e 58 90
e 58 91
e 58 92
e 58 134
e 58 135
e 58 144
e 58 148
e 58 162
e 58 174
e 58 175
e 58 212
e 58 213
e 58 214
e 58 260
e 59 76
e 59 89
e 59 93
e 59 94
e 59 102
e 59 106
e 59 116
e 59 136
e 59 137
e 59 138
e 59 139
e 59 145
e 59 163
e 59 176
e 59 177
e 59 215
e 59 248
e 59 249
e 60 61
e 60 63
e 60 95
e 60 96
e 60 97
e 60 98
e 60 166
e 60 170
e 60 188
e 60 215
e 60 216
e 60 232
e 60 246
e 60 253
e 60 255
e 60 278
e 61 65
e 61 74
e 61 95
e 61 96
e 61 97
e 61 98
e 61 172
e 61 175
e 61 189
e 61 200
e 61 205
e 61 218
e 61 233
e 61 256
e 61 262
e 62 66
e 62 75
e 62 77
e 62 102
e 62 105
e 62 141
e 62 142
e 62 143
e 62 144
e 62 182
e 62 183
e 62 219
e 62 251
e 62 267
e 62 268
e 63 64
e 63 65
e 63 103
e 63 104
e 63 166
e 63 170
e 63 188
e 63 215
e 63 216
e 63 232
e 63 246
e 63 253
e 63 255
e 63 278
e 64 65
e 64 73
e 64 103
e 64 104
e 64 171
e 64 174
e 64 199
e 64 204
e 64 217
e 64 247
e 64 251
e 64 254
e 64 261
e 64 279
e 65 74
e 65 103
e 65 104
e 65 172
e 65 175
e 65 189
e 65 200
e 65 205
e 65 218
e 65 233
e 65 256
e 65 262
e 66 75
e 66 77
e 66 105
e 66 106
e 66 146
e 66 147
e 66 148
e 66 187
e 66 223
e 66 224
e 66 253
e 66 254
e 66 269
e 66 270
e 67 68
e 67 69
e 67 70
e 67 78
e 67 93
e 67 99
e 67 107
e 67 108
e 67 117
e 67 131
e 67 141
e 67 149
e 67 150
e 67 151
e 67 159
e 67 184
e 67 188
e 67 189
e 67 225
e 67 226
e 68 69
e 68 71
e 68 79
e 68 85
e 68 100
e 68 107
e 68 108
e 68 118
e 68 132
e 68 142
e 68 146
e 68 149
e 68 150
e 68 151
e 68 155
e 68 160
e 68 185
e 68 188
e 68 189
e 68 225
e 68 226
e 69 72
e 69 80
e 69 86
e 69 107
e 69 108
e 69 134
e 69 144
e 69 148
e 69 149
e 69 150
e 69 151
e 69 162
e 69 188
e 69 189
e 69 225
e 69 226
e 69 260
e 70 71
e 70 72
e 70 78
e 70 93
e 70 99
e 70 109
e 70 110
e 70 111
e 70 117
e 70 131
e 70 141
e 70 152
e 70 153
e 70 154
e 70 159
e 70 184
e 70 227
e 70 228
e 70 229
e 71 72
e 71 79
e 71 85
e 71 100
e 71 109
e 71 110
e 71 111
e 71 118
e 71 132
e 71 142
e 71 146
e 71 152
e 71 153
e 71 154
e 71 155
e 71 160
e 71 185
e 71 227
e 71 228
e 71 229
e 72 80
e 72 86
e 72 109
e 72 110
e 72 111
e 72 134
e 72 144
e 72 148
e 72 152
e 72 153
e 72 154
e 72 162
e 72 227
e 72 228
e 72 229
e 72 260
e 73 74
e 73 112
e 73 113
e 73 114
e 73 115
e 73 171
e 73 174
e 73 199
e 73 204
e 73 217
e 73 247
e 73 251
e 73 254
e 73 261
e 73 279
e 74 112
e 74 113
e 74 114
e 74 115
e 74 172
e 74 175
e 74 189
e 74 200
e 74 205
e 74 218
e 74 233
e 74 256
e 74 262
e 75 77
e 75 105
e 75 116
e 75 155
e 75 156
e 75 190
e 75 191
e 75 192
e 75 193
e 75 230
e 75 231
e 75 255
e 75 256
e 76 89
e 76 102
e 76 106
e 76 116
e 76 117
e 76 118
e 76 145
e 76 157
e 76 158
e 76 163
e 76 194
e 76 195
e 76 196
e 76 232
e 76 233
e 76 257
e 76 258
e 77 105
e 77 159
e 77 160
e 77 161
e 77 162
e 77 197
e 77 234
e 77 235
e 77 236
e 77 261
e 77 262
e 77 273
e 78 79
e 78 80
e 78 93
e 78 99
e 78 117
e 78 119
e 78 120
e 78 121
e 78 131
e 78 141
e 78 159
e 78 164
e 78 165
e 78 184
e 78 199
e 78 200
e 78 241
e 78 242
e 78 243
e 79 80
e 79 85
e 79 100
e 79 118
e 79 119
e 79 120
e 79 121
e 79 132
e 79 142
e 79 146
e 79 155
e 79 160
e 79 164
e 79 165
e 79 185
e 79 199
e 79 200
e 79 241
e 79 242
e 79 243
e 80 86
e 80 119
e 80 120
e 80 121
e 80 134
e 80 144
e 80 148
e 80 162
e 80 164
e 80 165
e 80 199
e 80 200
e 80 241
e 80 242
e 80 243
e 80 260
e 81 82
e 81 83
e 81 84
e 81 90
e 81 107
e 81 109
e 81 119
e 81 122
e 81 123
e 81 124
e 81 125
e 81 136
e 81 157
e 81 166
e 81 173
e 81 190
e 81 201
e 81 202
e 81 203
e 81 220
e 81 237
e 82 83
e 82 84
e 82 87
e 82 110
e 82 120
e 82 122
e 82 123
e 82 124
e 82 137
e 82 140
e 82 166
e 82 182
e 82 191
e 82 197
e 82 201
e 82 202
e 82 203
e 82 238
e 82 271
e 83 84
e 83 91
e 83 108
e 83 111
e 83 121
e 83 122
e 83 123
e 83 124
e 83 126
e 83 138
e 83 158
e 83 166
e 83 192
e 83 201
e 83 202
e 83 203
e 83 221
e 83 239
e 84 88
e 84 92
e 84 122
e 84 123
e 84 124
e 84 127
e 84 139
e 84 166
e 84 183
e 84 187
e 84 193
e 84 201
e 84 202
e 84 203
e 84 222
e 84 240
e 84 272
e 85 86
e 85 100
e 85 118
e 85 125
e 85 126
e 85 127
e 85 132
e 85 142
e 85 146
e 85 155
e 85 160
e 85 167
e 85 168
e 85 169
e 85 185
e 85 204
e 85 205
e 85 244
e 85 245
e 86 125
e 86 126
e 86 127
e 86 134
e 86 144
e 86 148
e 86 162
e 86 167
e 86 168
e 86 169
e 86 204
e 86 205
e 86 244
e 86 245
e 86 260
e 87 88
e 87 110
e 87 120
e 87 128
e 87 129
e 87 130
e 87 137
e 87 140
e 87 170
e 87 171
e 87 172
e 87 182
e 87 191
e 87 197
e 87 206
e 87 207
e 87 208
e 87 238
e 87 271
e 88 92
e 88 127
e 88 128
e 88 129
e 88 130
e 88 139
e 88 170
e 88 171
e 88 172
e 88 183
e 88 187
e 88 193
e 88 206
e 88 207
e 88 208
e 88 222
e 88 240
e 88 272
e 89 102
e 89 106
e 89 116
e 89 131
e 89 132
e 89 133
e 89 134
e 89 145
e 89 163
e 89 173
e 89 209
e 89 210
e 89 211
e 89 246
e 89 247
e 90 91
e 90 92
e 90 107
e 90 109
e 90 119
e 90 125
e 90 135
e 90 136
e 90 157
e 90 173
e 90 174
e 90 175
e 90 190
e 90 212
e 90 213
e 90 214
e 90 220
e 90 237
e 91 92
e 91 108
e 91 111
e 91 121
e 91 126
e 91 135
e 91 138
e 91 158
e 91 174
e 91 175
e 91 192
e 91 212
e 91 213
e 91 214
e 91 221
e 91 239
e 92 127
e 92 135
e 92 139
e 92 174
e 92 175
e 92 183
e 92 187
e 92 193
e 92 212
e 92 213
e 92 214
e 92 222
e 92 240
e 92 272
e 93 94
e 93 99
e 93 117
e 93 131
e 93 136
e 93 137
e 93 138
e 93 139
e 93 141
e 93 159
e 93 176
e 93 177
e 93 184
e 93 215
e 93 248
e 93 249
e 94 101
e 94 133
e 94 136
e 94 137
e 94 138
e 94 139
e 94 143
e 94 147
e 94 156
e 94 161
e 94 176
e 94 177
e 94 186
e 94 198
e 94 215
e 94 248
e 94 249
e 94 259
e 95 96
e 95 97
e 95 98
e 95 103
e 95 112
e 95 201
e 95 206
e 95 212
e 95 227
e 95 269
e 95 273
e 95 274
e 95 280
e 96 97
e 96 98
e 96 113
e 96 207
e 96 213
e 96 225
e 96 241
e 96 244
e 96 248
e 96 250
e 96 257
e 96 270
e 97 98
e 97 114
e 97 202
e 97 208
e 97 228
e 97 242
e 97 245
e 97 249
e 97 267
e 97 275
e 97 277
e 98 104
e 98 115
e 98 203
e 98 214
e 98 226
e 98 229
e 98 243
e 98 258
e 98 268
e 98 281
e 99 100
e 99 101
e 99 117
e 99 131
e 99 140
e 99 141
e 99 159
e 99 178
e 99 179
e 99 180
e 99 181
e 99 184
e 99 216
e 99 217
e 99 218
e 99 250
e 100 101
e 100 118
e 100 132
e 100 140
e 100 142
e 100 146
e 100 155
e 100 160
e 100 178
e 100 179
e 100 180
e 100 181
e 100 185
e 100 216
e 100 217
e 100 218
e 100 250
e 101 133
e 101 140
e 101 143
e 101 147
e 101 156
e 101 161
e 101 178
e 101 179
e 101 180
e 101 181
e 101 186
e 101 198
e 101 216
e 101 217
e 101 218
e 101 250
e 101 259
e 102 106
e 102 116
e 102 141
e 102 142
e 102 143
e 102 144
e 102 145
e 102 163
e 102 182
e 102 183
e 102 219
e 102 251
e 102 267
e 102 268
e 103 104
e 103 112
e 103 201
e 103 206
e 103 212
e 103 227
e 103 269
e 103 273
e 103 274
e 103 280
e 104 115
e 104 203
e 104 214
e 104 226
e 104 229
e 104 243
e 104 258
e 104 268
e 104 281
e 105 145
e 105 184
e 105 185
e 105 186
e 105 220
e 105 221
e 105 222
e 105 252
e 105 274
e 105 275
e 106 116
e 106 145
e 106 146
e 106 147
e 106 148
e 106 163
e 106 187
e 106 223
e 106 224
e 106 253
e 106 254
e 106 269
e 106 270
e 107 108
e 107 109
e 107 119
e 107 125
e 107 136
e 107 149
e 107 150
e 107 151
e 107 157
e 107 173
e 107 188
e 107 189
e 107 190
e 107 220
e 107 225
e 107 226
e 107 237
e 108 111
e 108 121
e 108 126
e 108 138
e 108 149
e 108 150
e 108 151
e 108 158
e 108 188
e 108 189
e 108 192
e 108 221
e 108 225
e 108 226
e 108 239
e 109 110
e 109 111
e 109 119
e 109 125
e 109 136
e 109 152
e 109 153
e 109 154
e 109 157
e 109 173
e 109 190
e 109 220
e 109 227
e 109 228
e 109 229
e 109 237
e 110 111
e 110 120
e 110 137
e 110 140
e 110 152
e 110 153
e 110 154
e 110 182
e 110 191
e 110 197
e 110 227
e 110 228
e 110 229
e 110 238
e 110 271
e 111 121
e 111 126
e 111 138
e 111 152
e 111 153
e 111 154
e 111 158
e 111 192
e 111 221
e 111 227
e 111 228
e 111 229
e 111 239
e 112 113
e 112 114
e 112 115
e 112 201
e 112 206
e 112 212
e 112 227
e 112 269
e 112 273
e 112 274
e 112 280
e 113 114
e 113 115
e 113 207
e 113 213
e 113 225
e 113 241
e 113 244
e 113 248
e 113 250
e 113 257
e 113 270
e 114 115
e 114 202
e 114 208
e 114 228
e 114 242
e 114 245
e 114 249
e 114 267
e 114 275
e 114 277
e 115 203
e 115 214
e 115 226
e 115 229
e 115 243
e 115 258
e 115 268
e 115 281
e 116 145
e 116 155
e 116 156
e 116 163
e 116 190
e 116 191
e 116 192
e 116 193
e 116 230
e 116 231
e 116 255
e 116 256
e 117 118
e 117 131
e 117 141
e 117 157
e 117 158
e 117 159
e 117 184
e 117 194
e 117 195
e 117 196
e 117 232
e 117 233
e 117 257
e 117 258
e 118 132
e 118 142
e 118 146
e 118 155
e 118 157
e 118 158
e 118 160
e 118 185
e 118 194
e 118 195
e 118 196
e 118 232
e 118 233
e 118 257
e 118 258
e 119 120
e 119 121
e 119 125
e 119 136
e 119 157
e 119 164
e 119 165
e 119 173
e 119 190
e 119 199
e 119 200
e 119 220
e 119 237
e 119 241
e 119 242
e 119 243
e 120 121
e 120 137
e 120 140
e 120 164
e 120 165
e 120 182
e 120 191
e 120 197
e 120 199
e 120 200
e 120 238
e 120 241
e 120 242
e 120 243
e 120 271
e 121 126
e 121 138
e 121 158
e 121 164
e 121 165
e 121 192
e 121 199
e 121 200
e 121 221
e 121 239
e 121 241
e 121 242
e 121 243
e 122 123
e 122 124
e 122 128
e 122 152
e 122 164
e 122 166
e 122 176
e 122 178
e 122 194
e 122 201
e 122 202
e 122 203
e 122 223
e 122 230
e 122 252
e 122 263
e 123 124
e 123 135
e 123 149
e 123 153
e 123 166
e 123 167
e 123 177
e 123 179
e 123 201
e 123 202
e 123 203
e 123 209
e 123 219
e 123 224
e 123 234
e 123 264
e 124 130
e 124 151
e 124 154
e 124 166
e 124 169
e 124 181
e 124 196
e 124 201
e 124 202
e 124 203
e 124 211
e 124 236
e 124 266
e 125 126
e 125 127
e 125 136
e 125 157
e 125 167
e 125 168
e 125 169
e 125 173
e 125 190
e 125 204
e 125 205
e 125 220
e 125 237
e 125 244
e 125 245
e 126 127
e 126 138
e 126 158
e 126 167
e 126 168
e 126 169
e 126 192
e 126 204
e 126 205
e 126 221
e 126 239
e 126 244
e 126 245
e 127 139
e 127 167
e 127 168
e 127 169
e 127 183
e 127 187
e 127 193
e 127 204
e 127 205
e 127 222
e 127 240
e 127 244
e 127 245
e 127 272
e 128 129
e 128 130
e 128 152
e 128 164
e 128 170
e 128 171
e 128 172
e 128 176
e 128 178
e 128 194
e 128 206
e 128 207
e 128 208
e 128 223
e 128 230
e 128 252
e 128 263
e 129 130
e 129 150
e 129 165
e 129 168
e 129 170
e 129 171
e 129 172
e 129 180
e 129 195
e 129 206
e 129 207
e 129 208
e 129 210
e 129 231
e 129 235
e 129 265
e 129 276
e 130 151
e 130 154
e 130 169
e 130 170
e 130 171
e 130 172
e 130 181
e 130 196
e 130 206
e 130 207
e 130 208
e 130 211
e 130 236
e 130 266
e 131 132
e 131 133
e 131 134
e 131 141
e 131 159
e 131 173
e 131 184
e 131 209
e 131 210
e 131 211
e 131 246
e 131 247
e 132 133
e 132 134
e 132 142
e 132 146
e 132 155
e 132 160
e 132 173
e 132 185
e 132 209
e 132 210
e 132 211
e 132 246
e 132 247
e 133 134
e 133 143
e 133 147
e 133 156
e 133 161
e 133 173
e 133 186
e 133 198
e 133 209
e 133 210
e 133 211
e 133 246
e 133 247
e 133 259
e 134 144
e 134 148
e 134 162
e 134 173
e 134 209
e 134 210
e 134 211
e 134 246
e 134 247
e 134 260
e 135 149
e 135 153
e 135 167
e 135 174
e 135 175
e 135 177
e 135 179
e 135 209
e 135 212
e 135 213
e 135 214
e 135 219
e 135 224
e 135 234
e 135 264
e 136 137
e 136 138
e 136 139
e 136 157
e 136 173
e 136 176
e 136 177
e 136 190
e 136 215
e 136 220
e 136 237
e 136 248
e 136 249
e 137 138
e 137 139
e 137 140
e 137 176
e 137 177
e 137 182
e 137 191
e 137 197
e 137 215
e 137 238
e 137 248
e 137 249
e 137 271
e 138 139
e 138 158
e 138 176
e 138 177
e 138 192
e 138 215
e 138 221
e 138 239
e 138 248
e 138 249
e 139 176
e 139 177
e 139 183
e 139 187
e 139 193
e 139 215
e 139 222
e 139 240
e 139 248
e 139 249
e 139 272
e 140 178
e 140 179
e 140 180
e 140 181
e 140 182
e 140 191
e 140 197
e 140 216
e 140 217
e 140 218
e 140 238
e 140 250
e 140 271
e 141 142
e 141 143
e 141 144
e 141 159
e 141 182
e 141 183
e 141 184
e 141 219
e 141 251
e 141 267
e 141 268
e 142 143
e 142 144
e 142 146
e 142 155
e 142 160
e 142 182
e 142 183
e 142 185
e 142 219
e 142 251
e 142 267
e 142 268
e 143 144
e 143 147
e 143 156
e 143 161
e 143 182
e 143 183
e 143 186
e 143 198
e 143 219
e 143 251
e 143 259
e 143 267
e 143 268
e 144 148
e 144 162
e 144 182
e 144 183
e 144 219
e 144 251
e 144 260
e 144 267
e 144 268
e 145 163
e 145 184
e 145 185
e 145 186
e 145 220
e 145 221
e 145 222
e 145 252
e 145 274
e 145 275
e 146 147
e 146 148
e 146 155
e 146 160
e 146 185
e 146 187
e 146 223
e 146 224
e 146 253
e 146 254
e 146 269
e 146 270
e 147 148
e 147 156
e 147 161
e 147 186
e 147 187
e 147 198
e 147 223
e 147 224
e 147 253
e 147 254
e 147 259
e 147 269
e 147 270
e 148 162
e 148 187
e 148 223
e 148 224
e 148 253
e 148 254
e 148 260
e 148 269
e 148 270
e 149 150
e 149 151
e 149 153
e 149 167
e 149 177
e 149 179
e 149 188
e 149 189
e 149 209
e 149 219
e 149 224
e 149 225
e 149 226
e 149 234
e 149 264
e 150 151
e 150 165
e 150 168
e 150 180
e 150 188
e 150 189
e 150 195
e 150 210
e 150 225
e 150 226
e 150 231
e 150 235
e 150 265
e 150 276
e 151 154
e 151 169
e 151 181
e 151 188
e 151 189
e 151 196
e 151 211
e 151 225
e 151 226
e 151 236
e 151 266
e 152 153
e 152 154
e 152 164
e 152 176
e 152 178
e 152 194
e 152 223
e 152 227
e 152 228
e 152 229
e 152 230
e 152 252
e 152 263
e 153 154
e 153 167
e 153 177
e 153 179
e 153 209
e 153 219
e 153 224
e 153 227
e 153 228
e 153 229
e 153 234
e 153 264
e 154 169
e 154 181
e 154 196
e 154 211
e 154 227
e 154 228
e 154 229
e 154 236
e 154 266
e 155 156
e 155 160
e 155 185
e 155 190
e 155 191
e 155 192
e 155 193
e 155 230
e 155 231
e 155 255
e 155 256
e 156 161
e 156 186
e 156 190
e 156 191
e 156 192
e 156 193
e 156 198
e 156 230
e 156 231
e 156 255
e 156 256
e 156 259
e 157 158
e 157 173
e 157 190
e 157 194
e 157 195
e 157 196
e 157 220
e 157 232
e 157 233
e 157 237
e 157 257
e 157 258
e 158 192
e 158 194
e 158 195
e 158 196
e 158 221
e 158 232
e 158 233
e 158 239
e 158 257
e 158 258
e 159 160
e 159 161
e 159 162
e 159 184
e 159 197
e 159 234
e 159 235
e 159 236
e 159 261
e 159 262
e 159 273
e 160 161
e 160 162
e 160 185
e 160 197
e 160 234
e 160 235
e 160 236
e 160 261
e 160 262
e 160 273
e 161 162
e 161 186
e 161 197
e 161 198
e 161 234
e 161 235
e 161 236
e 161 259
e 161 261
e 161 262
e 161 273
e 162 197
e 162 234
e 162 235
e 162 236
e 162 260
e 162 261
e 162 262
e 162 273
e 163 198
e 163 237
e 163 238
e 163 239
e 163 240
e 163 263
e 163 264
e 163 265
e 163 266
e 163 277
e 164 165
e 164 176
e 164 178
e 164 194
e 164 199
e 164 200
e 164 223
e 164 230
e 164 241
e 164 242
e 164 243
e 164 252
e 164 263
e 165 168
e 165 180
e 165 195
e 165 199
e 165 200
e 165 210
e 165 231
e 165 235
e 165 241
e 165 242
e 165 243
e 165 265
e 165 276
e 166 170
e 166 188
e 166 201
e 166 202
e 166 203
e 166 215
e 166 216
e 166 232
e 166 246
e 166 253
e 166 255
e 166 278
e 167 168
e 167 169
e 167 177
e 167 179
e 167 204
e 167 205
e 167 209
e 167 219
e 167 224
e 167 234
e 167 244
e 167 245
e 167 264
e 168 169
e 168 180
e 168 195
e 168 204
e 168 205
e 168 210
e 168 231
e 168 235
e 168 244
e 168 245
e 168 265
e 168 276
e 169 181
e 169 196
e 169 204
e 169 205
e 169 211
e 169 236
e 169 244
e 169 245
e 169 266
e 170 171
e 170 172
e 170 188
e 170 206
e 170 207
e 170 208
e 170 215
e 170 216
e 170 232
e 170 246
e 170 253
e 170 255
e 170 278
e 171 172
e 171 174
e 171 199
e 171 204
e 171 206
e 171 207
e 171 208
e 171 217
e 171 247
e 171 251
e 171 254
e 171 261
e 171 279
e 172 175
e 172 189
e 172 200
e 172 205
e 172 206
e 172 207
e 172 208
e 172 218
e 172 233
e 172 256
e 172 262
e 173 190
e 173 209
e 173 210
e 173 211
e 173 220
e 173 237
e 173 246
e 173 247
e 174 175
e 174 199
e 174 204
e 174 212
e 174 213
e 174 214
e 174 217
e 174 247
e 174 251
e 174 254
e 174 261
e 174 279
e 175 189
e 175 200
e 175 205
e 175 212
e 175 213
e 175 214
e 175 218
e 175 233
e 175 256
e 175 262
e 176 177
e 176 178
e 176 194
e 176 215
e 176 223
e 176 230
e 176 248
e 176 249
e 176 252
e 176 263
e 177 179
e 177 209
e 177 215
e 177 219
e 177 224
e 177 234
e 177 248
e 177 249
e 177 264
e 178 179
e 178 180
e 178 181
e 178 194
e 178 216
e 178 217
e 178 218
e 178 223
e 178 230
e 178 250
e 178 252
e 178 263
e 179 180
e 179 181
e 179 209
e 179 216
e 179 217
e 179 218
e 179 219
e 179 224
e 179 234
e 179 250
e 179 264
e 180 181
e 180 195
e 180 210
e 180 216
e 180 217
e 180 218
e 180 231
e 180 235
e 180 250
e 180 265
e 180 276
e 181 196
e 181 211
e 181 216
e 181 217
e 181 218
e 181 236
e 181 250
e 181 266
e 182 183
e 182 191
e 182 197
e 182 219
e 182 238
e 182 251
e 182 267
e 182 268
e 182 271
e 183 187
e 183 193
e 183 219
e 183 222
e 183 240
e 183 251
e 183 267
e 183 268
e 183 272
e 184 185
e 184 186
e 184 220
e 184 221
e 184 222
e 184 252
e 184 274
e 184 275
e 185 186
e 185 220
e 185 221
e 185 222
e 185 252
e 185 274
e 185 275
e 186 198
e 186 220
e 186 221
e 186 222
e 186 252
e 186 259
e 186 274
e 186 275
e 187 193
e 187 222
e 187 223
e 187 224
e 187 240
e 187 253
e 187 254
e 187 269
e 187 270
e 187 272
e 188 189
e 188 215
e 188 216
e 188 225
e 188 226
e 188 232
e 188 246
e 188 253
e 188 255
e 188 278
e 189 200
e 189 205
e 189 218
e 189 225
e 189 226
e 189 233
e 189 256
e 189 262
e 190 191
e 190 192
e 190 193
e 190 220
e 190 230
e 190 231
e 190 237
e 190 255
e 190 256
e 191 192
e 191 193
e 191 197
e 191 230
e 191 231
e 191 238
e 191 255
e 191 256
e 191 271
e 192 193
e 192 221
e 192 230
e 192 231
e 192 239
e 192 255
e 192 256
e 193 222
e 193 230
e 193 231
e 193 240
e 193 255
e 193 256
e 193 272
e 194 195
e 194 196
e 194 223
e 194 230
e 194 232
e 194 233
e 194 252
e 194 257
e 194 258
e 194 263
e 195 196
e 195 210
e 195 231
e 195 232
e 195 233
e 195 235
e 195 257
e 195 258
e 195 265
e 195 276
e 196 211
e 196 232
e 196 233
e 196 236
e 196 257
e 196 258
e 196 266
e 197 234
e 197 235
e 197 236
e 197 238
e 197 261
e 197 262
e 197 271
e 197 273
e 198 237
e 198 238
e 198 239
e 198 240
e 198 259
e 198 263
e 198 264
e 198 265
e 198 266
e 198 277
e 199 200
e 199 204
e 199 217
e 199 241
e 199 242
e 199 243
e 199 247
e 199 251
e 199 254
e 199 261
e 199 279
e 200 205
e 200 218
e 200 233
e 200 241
e 200 242
e 200 243
e 200 256
e 200 262
e 201 202
e 201 203
e 201 206
e 201 212
e 201 227
e 201 269
e 201 273
e 201 274
e 201 280
e 202 203
e 202 208
e 202 228
e 202 242
e 202 245
e 202 249
e 202 267
e 202 275
e 202 277
e 203 214
e 203 226
e 203 229
e 203 243
e 203 258
e 203 268
e 203 281
e 204 205
e 204 217
e 204 244
e 204 245
e 204 247
e 204 251
e 204 254
e 204 261
e 204 279
e 205 218
e 205 233
e 205 244
e 205 245
e 205 256
e 205 262
e 206 207
e 206 208
e 206 212
e 206 227
e 206 269
e 206 273
e 206 274
e 206 280
e 207 208
e 207 213
e 207 225
e 207 241
e 207 244
e 207 248
e 207 250
e 207 257
e 207 270
e 208 228
e 208 242
e 208 245
e 208 249
e 208 267
e 208 275
e 208 277
e 209 210
e 209 211
e 209 219
e 209 224
e 209 234
e 209 246
e 209 247
e 209 264
e 210 211
e 210 231
e 210 235
e 210 246
e 210 247
e 210 265
e 210 276
e 211 236
e 211 246
e 211 247
e 211 266
e 212 213
e 212 214
e 212 227
e 212 269
e 212 273
e 212 274
e 212 280
e 213 214
e 213 225
e 213 241
e 213 244
e 213 248
e 213 250
e 213 257
e 213 270
e 214 226
e 214 229
e 214 243
e 214 258
e 214 268
e 214 281
e 215 216
e 215 232
e 215 246
e 215 248
e 215 249
e 215 253
e 215 255
e 215 278
e 216 217
e 216 218
e 216 232
e 216 246
e 216 250
e 216 253
e 216 255
e 216 278
e 217 218
e 217 247
e 217 250
e 217 251
e 217 254
e 217 261
e 217 279
e 218 233
e 218 250
e 218 256
e 218 262
e 219 224
e 219 234
e 219 251
e 219 264
e 219 267
e 219 268
e 220 221
e 220 222
e 220 237
e 220 252
e 220 274
e 220 275
e 221 222
e 221 239
e 221 252
e 221 274
e 221 275
e 222 240
e 222 252
e 222 272
e 222 274
e 222 275
e 223 224
e 223 230
e 223 252
e 223 253
e 223 254
e 223 263
e 223 269
e 223 270
e 224 234
e 224 253
e 224 254
e 224 264
e 224 269
e 224 270
e 225 226
e 225 241
e 225 244
e 225 248
e 225 250
e 225 257
e 225 270
e 226 229
e 226 243
e 226 258
e 226 268
e 226 281
e 227 228
e 227 229
e 227 269
e 227 273
e 227 274
e 227 280
e 228 229
e 228 242
e 228 245
e 228 249
e 228 267
e 228 275
e 228 277
e 229 243
e 229 258
e 229 268
e 229 281
e 230 231
e 230 252
e 230 255
e 230 256
e 230 263
e 231 235
e 231 255
e 231 256
e 231 265
e 231 276
e 232 233
e 232 246
e 232 253
e 232 255
e 232 257
e 232 258
e 232 278
e 233 256
e 233 257
e 233 258
e 233 262
e 234 235
e 234 236
e 234 261
e 234 262
e 234 264
e 234 273
e 235 236
e 235 261
e 235 262
e 235 265
e 235 273
e 235 276
e 236 261
e 236 262
e 236 266
e 236 273
e 237 238
e 237 239
e 237 240
e 237 263
e 237 264
e 237 265
e 237 266
e 237 277
e 238 239
e 238 240
e 238 263
e 238 264
e 238 265
e 238 266
e 238 271
e 238 277
e 239 240
e 239 263
e 239 264
e 239 265
e 239 266
e 239 277
e 240 263
e 240 264
e 240 265
e 240 266
e 240 272
e 240 277
e 241 242
e 241 243
e 241 244
e 241 248
e 241 250
e 241 257
e 241 270
e 242 243
e 242 245
e 242 249
e 242 267
e 242 275
e 242 277
e 243 258
e 243 268
e 243 281
e 244 245
e 244 248
e 244 250
e 244 257
e 244 270
e 245 249
e 245 267
e 245 275
e 245 277
e 246 247
e 246 253
e 246 255
e 246 278
e 247 251
e 247 254
e 247 261
e 247 279
e 248 249
e 248 250
e 248 257
e 248 270
e 249 267
e 249 275
e 249 277
e 250 257
e 250 270
e 251 254
e 251 261
e 251 267
e 251 268
e 251 279
e 252 263
e 252 274
e 252 275
e 253 254
e 253 255
e 253 269
e 253 270
e 253 278
e 254 261
e 254 269
e 254 270
e 254 279
e 255 256
e 255 278
e 256 262
e 257 258
e 257 270
e 258 268
e 258 281
e 259 260
e 259 271
e 259 272
e 259 276
e 259 278
e 259 279
e 259 280
e 259 281
e 260 271
e 260 272
e 260 276
e 260 278
e 260 279
e 260 280
e 260 281
e 261 262
e 261 273
e 261 279
e 262 273
e 263 264
e 263 265
e 263 266
e 263 277
e 264 265
e 264 266
e 264 277
e 265 266
e 265 276
e 265 277
e 266 277
e 267 268
e 267 275
e 267 277
e 268 281
e 269 270
e 269 273
e 269 274
e 269 280
e 271 272
e 271 276
e 271 278
e 271 279
e 271 280
e 271 281
e 272 276
e 272 278
e 272 279
e 272 280
e 272 281
e 273 274
e 273 280
e 274 275
e 274 280
e 275 277
e 276 278
e 276 279
e 276 280
e 276 281
e 278 279
e 278 280
e 278 281
e 279 280
e 279 281
e 280 281
